39878 39494 
40257 38958 
40131 39339 
39647 39711 
39480 39883 
40002 39483 
39835 39655 
38702 40318 
38487 40543 
38416 40601 
39198 40089 
37761 40722 
39405 39951 
39451 39934 
38552 40343 
38719 40294 
38805 40188 
38907 40115 
39547 39750 
